nTasks=4;
nThreads=9;
nCPUs=3;
nCores=4;
rh=[979.185966372 584.614456597 966.467716174 170.562916788 615.594498425 522.131656923 884.826323796 617.049885367 388.364390263];
rc=[669.340841012 580.71330095 544.909272575];
CK=[
	[1 0 0 0]
	[0 1 1 0]
	[0 0 0 1]
];
TH=[
	[1 0 0 0 0 0 0 0 0]
	[0 1 1 1 0 0 0 0 0]
	[0 0 0 0 1 1 0 0 0]
	[0 0 0 0 0 0 1 1 1]
];
